This is Ipopt version 3.13.4, running with linear solver mumps.
NOTE: Other linear solvers might be more efficient (see Ipopt documentation).

Number of nonzeros in equality constraint Jacobian...:     1552
Number of nonzeros in inequality constraint Jacobian.:        0
Number of nonzeros in Lagrangian Hessian.............:        0

Total number of variables............................:       97
                     variables with only lower bounds:        0
                variables with lower and upper bounds:       91
                     variables with only upper bounds:        0
Total number of equality constraints.................:       16
Total number of inequality constraints...............:        0
        inequality constraints with only lower bounds:        0
   inequality constraints with lower and upper bounds:        0
        inequality constraints with only upper bounds:        0

iter    objective    inf_pr   inf_du lg(mu)  ||d||  lg(rg) alpha_du alpha_pr  ls
   0  1.0000000e+00 5.00e-02 0.00e+00   0.0 0.00e+00    -  0.00e+00 0.00e+00   0
   1  1.0000000e+00 2.28e-02 1.39e+00  -5.6 2.19e-02    -  9.40e-01 5.44e-01h  1
   2  1.0000000e+00 7.46e-03 5.83e+00  -2.9 3.21e-02    -  9.88e-01 1.00e+00h  1
   3  1.0000000e+00 1.48e-02 9.37e+00  -3.3 2.09e-02    -  1.00e+00 1.00e+00h  1
